p cnf 7230 17
-877 -990 0
-877 -992 0
-877 -994 0
771 877 -989 0
774 877 -991 0
777 877 -993 0
989 990 0
-777 -994 0
991 992 0
-774 -992 0
-771 -990 0
993 994 0
780 877 996 0
987 988 0
-987 -988 0
-780 -996 0
-877 -996 0
